Data path: /scratch/opt/lxu/CFLG/benchmarks/tree_A
Instance: treeA.150.22
Result path: /scratch/opt/lxu/CFLG/results/tree_A
Solver: Gurobi
Time limit: 7200
Formulation: LEFPA
Cover: Small
julia --project=. src/main.jl /scratch/opt/lxu/CFLG/benchmarks/tree_A treeA.150.22 /scratch/opt/lxu/CFLG/results/tree_A Gurobi 7200 LEFPA Small
The latest version of Julia in the `release` channel is 1.11.6+0.x64.linux.gnu. You currently have `1.11.4+0.x64.linux.gnu` installed. Run:

  juliaup update

in your terminal shell to install Julia 1.11.6+0.x64.linux.gnu and update the `release` channel to that version.
/scratch/opt/lxu/CFLG/benchmarks/tree_A Gurobi 7200.0 /scratch/opt/lxu/CFLG/results/tree_A treeA.150.22 LEFPA Small
/scratch/opt/lxu/CFLG/benchmarks/tree_A/treeA.150.22

 read graph
data loaded


after absorb:92 150

max_piece:18
problem_graph/original graph: node: 92/150 edge: 113/171 dlt: 0.37350368461767663 break_avg_len: 2.260854161756557 break_max_len: 6.349947775897901Vbar/V, Ebar/E(51, 92, 72, 113)
Set parameter TokenServer to value "solice01.zib.de"
Set parameter Threads to value 1
Set parameter OutputFlag to value 1
Gurobi Optimizer version 12.0.1 build v12.0.1rc0 (linux64 - "Debian GNU/Linux 12 (bookworm)")

CPU model: Intel(R) Xeon(R) Gold 5122 CPU @ 3.60GHz, instruction set [SSE2|AVX|AVX2|AVX512]
Thread count: 8 physical cores, 16 logical processors, using up to 1 threads

Non-default parameters:
Threads  1

Optimize a model with 179 rows, 300 columns and 500 nonzeros
Model fingerprint: 0xb99f50ad
Coefficient statistics:
  Matrix range     [1e+00, 1e+00]
  Objective range  [1e+00, 1e+00]
  Bounds range     [1e+00, 1e+00]
  RHS range        [1e+00, 1e+00]
Presolve removed 56 rows and 56 columns
Presolve time: 0.00s
Presolved: 123 rows, 244 columns, 388 nonzeros

Iteration    Objective       Primal Inf.    Dual Inf.      Time
       0    8.7000000e+01   4.100000e+01   0.000000e+00      0s
      74    5.1000000e+01   0.000000e+00   0.000000e+00      0s

Solved in 74 iterations and 0.00 seconds (0.00 work units)
Optimal objective  5.100000000e+01

User-callback calls 121, time in user-callback 0.01 sec
elapsed CPU time: 1.343688 seconds
Set parameter TokenServer to value "solice01.zib.de"
Set parameter Threads to value 1
Set parameter OutputFlag to value 1
Set parameter MIPGap to value 0.0001
Set parameter TimeLimit to value 7198.656312

 more cuts: false 0.37350368461767663 false
is_attach:trueformulation:LEFPA72 28 28

 model loaded

Gurobi Optimizer version 12.0.1 build v12.0.1rc0 (linux64 - "Debian GNU/Linux 12 (bookworm)")

CPU model: Intel(R) Xeon(R) Gold 5122 CPU @ 3.60GHz, instruction set [SSE2|AVX|AVX2|AVX512]
Thread count: 8 physical cores, 16 logical processors, using up to 1 threads

Non-default parameters:
TimeLimit  7198.656312
Threads  1

Optimize a model with 1592 rows, 949 columns and 3257 nonzeros
Model fingerprint: 0x54da556d
Variable types: 279 continuous, 670 integer (670 binary)
Coefficient statistics:
  Matrix range     [4e-04, 1e+00]
  Objective range  [1e+00, 1e+00]
  Bounds range     [4e-04, 6e+00]
  RHS range        [4e-04, 6e+00]
Presolve removed 1077 rows and 453 columns
Presolve time: 0.01s
Presolved: 515 rows, 496 columns, 1561 nonzeros
Variable types: 209 continuous, 287 integer (287 binary)
Found heuristic solution: objective 346.0000000

Root relaxation: objective 3.079606e+02, 558 iterations, 0.01 seconds (0.00 work units)

    Nodes    |    Current Node    |     Objective Bounds      |     Work
 Expl Unexpl |  Obj  Depth IntInf | Incumbent    BestBd   Gap | It/Node Time

     0     0  307.96061    0  163  346.00000  307.96061  11.0%     -    0s
H    0     0                     344.0000000  307.96061  10.5%     -    0s
H    0     0                     343.0000000  307.96061  10.2%     -    0s
     0     0  320.58718    0  159  343.00000  320.58718  6.53%     -    0s
H    0     0                     342.0000000  320.58718  6.26%     -    0s
H    0     0                     341.0000000  320.58718  5.99%     -    0s
H    0     0                     340.0000000  320.58718  5.71%     -    0s
     0     0  320.99681    0  182  340.00000  320.99681  5.59%     -    0s
     0     0  321.00651    0  184  340.00000  321.00651  5.59%     -    0s
     0     0  321.00842    0  184  340.00000  321.00842  5.59%     -    0s
     0     0  324.30526    0  149  340.00000  324.30526  4.62%     -    0s
     0     0  324.49414    0  137  340.00000  324.49414  4.56%     -    0s
     0     0  325.02044    0  148  340.00000  325.02044  4.41%     -    0s
     0     0  325.02102    0  149  340.00000  325.02102  4.41%     -    0s
     0     0  326.20355    0  131  340.00000  326.20355  4.06%     -    0s
H    0     0                     339.0000000  326.20355  3.77%     -    0s
H    0     0                     338.0000000  326.20355  3.49%     -    0s
H    0     0                     337.0000000  326.20355  3.20%     -    0s
     0     0  326.24078    0  134  337.00000  326.24078  3.19%     -    0s
     0     0  326.24093    0  139  337.00000  326.24093  3.19%     -    0s
     0     0  326.91846    0  137  337.00000  326.91846  2.99%     -    0s
     0     0  326.92920    0  150  337.00000  326.92920  2.99%     -    0s
     0     0  327.41100    0  146  337.00000  327.41100  2.85%     -    0s
     0     0  327.41100    0  151  337.00000  327.41100  2.85%     -    0s
     0     0  327.54349    0  144  337.00000  327.54349  2.81%     -    0s
     0     0  327.54349    0   68  337.00000  327.54349  2.81%     -    0s
     0     2  327.67682    0   63  337.00000  327.67682  2.77%     -    0s
H  136    96                     334.0000000  328.34349  1.69%  11.3    0s
H  405   264                     333.0000000  328.38462  1.39%  10.3    0s
H  580   293                     332.0000000  328.44325  1.07%  10.5    0s
  4409  1260  329.77148   14   51  332.00000  329.77148  0.67%  19.7    5s
  9624  2255  331.00000   45   18  332.00000  330.00000  0.60%  20.5   10s
 11286  2548  331.00000   32   36  332.00000  330.00000  0.60%  21.3   15s
 16220  2255  331.00000   47   18  332.00000  330.50000  0.45%  21.3   20s
 22041  3054     cutoff   38       332.00000  330.94115  0.32%  20.8   25s
 28318  3924     cutoff   48       332.00000  331.00000  0.30%  19.8   30s
 34385  3866  331.00000   57   18  332.00000  331.00000  0.30%  19.0   35s
 40377  3762     cutoff   44       332.00000  331.00000  0.30%  18.5   40s
 46882  3689 infeasible   50       332.00000  331.00000  0.30%  18.1   45s
 53734  3545  331.00000   44    9  332.00000  331.00000  0.30%  17.7   50s
 60097  3526     cutoff   48       332.00000  331.00000  0.30%  17.5   55s
 66578  3485  331.00000   42    8  332.00000  331.00000  0.30%  17.3   60s
 73269  3373     cutoff   50       332.00000  331.00000  0.30%  17.1   65s
 79910  3282  331.00000   45   16  332.00000  331.00000  0.30%  17.0   70s
 86761  3163 infeasible   53       332.00000  331.00000  0.30%  16.8   75s
 93012  3048  331.00000   50   22  332.00000  331.00000  0.30%  16.7   80s
 99492  2922  331.00000   41   17  332.00000  331.00000  0.30%  16.6   85s
 106212  2875  331.00000   44   12  332.00000  331.00000  0.30%  16.6   90s
 112718  2810  331.00000   41    8  332.00000  331.00000  0.30%  16.5   95s
 119595  2757  331.00000   40   14  332.00000  331.00000  0.30%  16.4  100s
 126503  2718     cutoff   47       332.00000  331.00000  0.30%  16.4  105s
 133217  2649  331.00000   44   24  332.00000  331.00000  0.30%  16.3  110s
 139437  2578     cutoff   44       332.00000  331.00000  0.30%  16.3  115s
 146208  2447  331.00000   40   36  332.00000  331.00000  0.30%  16.3  120s
 152374  2325  331.00000   43   24  332.00000  331.00000  0.30%  16.3  125s
 159029  2247  331.00000   54   12  332.00000  331.00000  0.30%  16.3  130s
 165300  2175     cutoff   49       332.00000  331.00000  0.30%  16.3  135s
 171573  2075     cutoff   50       332.00000  331.00000  0.30%  16.4  140s
 178381  1978  331.00000   52   18  332.00000  331.00000  0.30%  16.4  145s
 184617  1905  331.00000   41   20  332.00000  331.00000  0.30%  16.4  150s
 190843  1789     cutoff   49       332.00000  331.00000  0.30%  16.5  155s
 196670  1731     cutoff   46       332.00000  331.00000  0.30%  16.4  160s
 202705  1584  331.00000   49   12  332.00000  331.00000  0.30%  16.5  165s
 209426  1401  331.00000   46   17  332.00000  331.00000  0.30%  16.5  170s
 215957  1286     cutoff   43       332.00000  331.00000  0.30%  16.5  175s
 222601  1166  331.00000   45    8  332.00000  331.00000  0.30%  16.5  180s
 229113  1038  331.00000   49   22  332.00000  331.00000  0.30%  16.5  185s
 234583   884  331.00000   39   36  332.00000  331.00000  0.30%  16.5  190s
 240689   714     cutoff   40       332.00000  331.00000  0.30%  16.6  195s
 247357   642  331.00000   39   22  332.00000  331.00000  0.30%  16.5  200s
 253621   538  331.00000   46   28  332.00000  331.00000  0.30%  16.6  205s
 260011   380  331.00000   53   14  332.00000  331.00000  0.30%  16.6  210s
 266082   319     cutoff   57       332.00000  331.00000  0.30%  16.6  215s
 271367   142     cutoff   43       332.00000  331.00000  0.30%  16.7  220s

Cutting planes:
  Learned: 8
  Gomory: 46
  Cover: 222
  Implied bound: 31
  Clique: 6
  MIR: 126
  Mixing: 24
  StrongCG: 3
  Flow cover: 486
  GUB cover: 15
  Inf proof: 7
  Zero half: 17
  RLT: 28
  Relax-and-lift: 11
  BQP: 6

Explored 276077 nodes (4617844 simplex iterations) in 224.20 seconds (152.28 work units)
Thread count was 1 (of 16 available processors)

Solution count 10: 332 333 334 ... 343

Optimal solution found (tolerance 1.00e-04)
Best objective 3.320000000000e+02, best bound 3.320000000000e+02, gap 0.0000%

User-callback calls 626915, time in user-callback 0.58 sec

 sepatime0 0 0
332.0
Stat(MathOptInterface.OPTIMAL, 332.0, 332.0, 0.0, 0.0, 1.343688, 224.20083785057068, 276077, Main.CFLG.LEFPA, "", #undef)
